CMD:
./solvers/bin/cadical --plain --no-reduce -t 1600 ./data/cnfs//zipcpu-pfcache-p24/zipcpu-pfcache-p24.70.cnf

c --- [ banner ] -------------------------------------------------------------
c 
c CaDiCaL SAT Solver
c Copyright (c) 2016-2024
c A. Biere, M. Fleury, N. Froleyks, K. Fazekas, F. Pollitt, T. Faller
c JKU Linz, University of Freiburg, TU Wien
c 
c Version 2.1.3 5296d3d2a9bf48c154ab2acb5e44625776d821bf
c g++ (Gentoo 12.3.1_p20230526 p2) 12.3.1 20230526 -Wall -Wextra -O3 -DNDEBUG
c Sat Aug 9 07:26:21 PDT 2025 Linux cedar2.int.cedar.computecanada.ca 5.14.0-362.24.2.el9_3.x86_64 x86_64
c 
c --- [ limit ] --------------------------------------------------------------
c 
c setting time limit to 1600 seconds real time (due to '-t 1600')
c 
c --- [ parsing input ] ------------------------------------------------------
c 
c reading DIMACS file from './data/cnfs//zipcpu-pfcache-p24/zipcpu-pfcache-p24.70.cnf'
c opening file to read './data/cnfs//zipcpu-pfcache-p24/zipcpu-pfcache-p24.70.cnf'
c found 'p cnf 1436058 4287539' header
c parsed 4287539 clauses in 0.62 seconds process time
c 
c --- [ options ] ------------------------------------------------------------
c 
c   --compact=false                (different from default 'true')
c   --decompose=false              (different from default 'true')
c   --deduplicate=false            (different from default 'true')
c   --elim=false                   (different from default 'true')
c   --probe=false                  (different from default 'true')
c   --reduce=false                 (different from default 'true')
c   --subsume=false                (different from default 'true')
c   --ternary=false                (different from default 'true')
c   --transred=false               (different from default 'true')
c   --vivify=false                 (different from default 'true')
c 
c --- [ solving ] ------------------------------------------------------------
c 
c time measured in process time since initialization
c 
c  seconds   reductions  redundant   irredundant
c          MB    restarts       trail         variables
c           level   conflicts       glue            remaining
c 
c *  0.62 657  0 0   0    0    0  0% 0 4256176 1423631 99%
c {  0.80 682  0 0   0    0    0  0% 0 4256176 1423631 99%
c i  0.81 683  1 0   0    1    0  1% 0 4256176 1271641 89%
c i  0.81 683 38 0   0    4    2  9% 0 4256176 1270641 88%
c i  0.84 683 729 0   0   15   11 15% 2 4256176 1266825 88%
c i  0.91 684 778 0   1   51   38 19% 2 4256176 1266807 88%
c i  0.91 684 645 0   1   61   46 18% 2 4256176 1246891 87%
c i  0.92 684 550 0   1   70   50 17% 2 4256176 1238503 86%
c i  0.95 684 372 0   2  105   78 17% 2 4256176 1238489 86%
c i  0.95 684 356 0   2  109   81 17% 2 4256176 1237792 86%
c i  0.95 684 343 0   2  113   84 17% 2 4256176 1235461 86%
c i  0.96 684 282 0   2  137  104 17% 2 4256176 1235456 86%
c i  0.97 684 260 0   2  148  114 17% 2 4256176 1235438 86%
c i  0.97 684 242 0   2  158  122 17% 2 4256176 1235420 86%
c i  0.98 684 239 0   2  160  123 17% 2 4256176 1235402 86%
c i  0.98 684 236 0   2  162  123 17% 2 4256176 1235201 86%
c i  0.98 684 234 0   2  163  123 17% 2 4256176 1234946 86%
c i  0.99 684 214 0   2  181  137 17% 2 4256176 1228893 86%
c }  0.99 684 211 0   2  184  138 17% 2 4256176 1223000 85%
c 0  0.99 684 211 0   2  184  138 17% 2 4256176 1223000 85%
c 
c --- [ result ] -------------------------------------------------------------
c 
s UNSATISFIABLE
c 
c --- [ run-time profiling ] -------------------------------------------------
c 
c process time taken by individual solving procedures
c (percentage relative to process time for solving)
c 
c         0.62  172.19% parse
c         0.36   99.97% search
c         0.19   52.27% unstable
c         0.17   47.69% lucky
c         0.00    0.00% simplify
c   =================================
c         0.36   36.72% solve
c 
c last line shows process time for solving
c (percentage relative to total process time)
c 
c --- [ statistics ] ---------------------------------------------------------
c 
c chronological:               107        58.15 %  of conflicts
c conflicts:                   184       507.52    per second
c decisions:                  1862      5135.87    per second
c fixed:                    213055        14.84 %  of all variables
c learned:                     163        88.59 %  per conflict
c learned_lits:                772       100.00 %  learned literals
c minimized:                     0         0.00 %  learned literals
c shrunken:                    115        14.90 %  learned literals
c minishrunken:                  5         0.65 %  learned literals
c otfs:                          3         1.63 %  of conflict
c propagations:            3016591         8.32 M  per second
c restarts:                      2        92.00    interval
c subsumed:                      8         0.00 %  of all clauses
c strengthened:                  3         0.00 %  of all clauses
c 
c seconds are measured in process time for solving
c 
c --- [ resources ] ----------------------------------------------------------
c 
c total process time since initialization:         0.99    seconds
c total real time since initialization:            0.99    seconds
c maximum resident set size of process:          682.50    MB
c 
c --- [ shutting down ] ------------------------------------------------------
c 
c exit 20
